* ENCODING=ISO-8859-1
NAME          
ROWS
 N  obj     
 L  Phi     
 L  Lambda  
 L  V1      
 L  V2      
 L  V3      
 L  V4      
 L  V5      
 L  V6      
 L  V7      
 L  V8      
 L  V9      
 L  V10     
 L  V11     
 L  V12     
 L  V13     
 L  V14     
 L  V15     
 L  V16     
 L  V17     
 L  V19     
 L  V20     
 L  V21     
 L  V22     
 L  V23     
 L  V24     
 L  V25     
 L  A1-21   
 L  A21-1   
 L  A1-23   
 L  A23-1   
 L  A2-4    
 L  A4-2    
 L  A2-10   
 L  A10-2   
 L  A3-22   
 L  A22-3   
 L  A4-11   
 L  A11-4   
 L  A4-25   
 L  A25-4   
 L  A6-16   
 L  A16-6   
 L  A9-25   
 L  A25-9   
 L  A10-11  
 L  A11-10  
 L  A10-14  
 L  A14-10  
 L  A10-25  
 L  A25-10  
 L  A11-12  
 L  A12-11  
 L  A11-21  
 L  A21-11  
 L  A12-15  
 L  A15-12  
 L  A15-20  
 L  A20-15  
 L  A16-19  
 L  A19-16  
COLUMNS
    MARK0000  'MARKER'                 'INTORG'
    a_1       obj                             1
    a_1       V1                              1
    a_1       A1-21                          -1
    a_1       A21-1                           1
    a_1       A1-23                          -1
    a_1       A23-1                           1
    a_2       obj                             1
    a_2       V2                              1
    a_2       A2-4                           -1
    a_2       A4-2                            1
    a_2       A2-10                          -1
    a_2       A10-2                           1
    a_3       obj                             1
    a_3       V3                              1
    a_3       A3-22                          -1
    a_3       A22-3                           1
    a_4       obj                             1
    a_4       V4                              1
    a_4       A2-4                            1
    a_4       A4-2                           -1
    a_4       A4-11                          -1
    a_4       A11-4                           1
    a_4       A4-25                          -1
    a_4       A25-4                           1
    a_5       obj                             1
    a_5       V5                              1
    a_6       obj                             1
    a_6       V6                              1
    a_6       A6-16                          -1
    a_6       A16-6                           1
    a_7       obj                             1
    a_7       V7                              1
    a_8       obj                             1
    a_8       V8                              1
    a_9       obj                             1
    a_9       V9                              1
    a_9       A9-25                          -1
    a_9       A25-9                           1
    a_10      obj                             1
    a_10      V10                             1
    a_10      A2-10                           1
    a_10      A10-2                          -1
    a_10      A10-11                         -1
    a_10      A11-10                          1
    a_10      A10-14                         -1
    a_10      A14-10                          1
    a_10      A10-25                         -1
    a_10      A25-10                          1
    a_11      obj                             1
    a_11      V11                             1
    a_11      A4-11                           1
    a_11      A11-4                          -1
    a_11      A10-11                          1
    a_11      A11-10                         -1
    a_11      A11-12                         -1
    a_11      A12-11                          1
    a_11      A11-21                         -1
    a_11      A21-11                          1
    a_12      obj                             1
    a_12      V12                             1
    a_12      A11-12                          1
    a_12      A12-11                         -1
    a_12      A12-15                         -1
    a_12      A15-12                          1
    a_13      obj                             1
    a_13      V13                             1
    a_14      obj                             1
    a_14      V14                             1
    a_14      A10-14                          1
    a_14      A14-10                         -1
    a_15      obj                             1
    a_15      V15                             1
    a_15      A12-15                          1
    a_15      A15-12                         -1
    a_15      A15-20                         -1
    a_15      A20-15                          1
    a_16      obj                             1
    a_16      V16                             1
    a_16      A6-16                           1
    a_16      A16-6                          -1
    a_16      A16-19                         -1
    a_16      A19-16                          1
    a_17      obj                             1
    a_17      V17                             1
    a_19      obj                             1
    a_19      V19                             1
    a_19      A16-19                          1
    a_19      A19-16                         -1
    a_20      obj                             1
    a_20      V20                             1
    a_20      A15-20                          1
    a_20      A20-15                         -1
    a_21      obj                             1
    a_21      V21                             1
    a_21      A1-21                           1
    a_21      A21-1                          -1
    a_21      A11-21                          1
    a_21      A21-11                         -1
    a_22      obj                             1
    a_22      V22                             1
    a_22      A3-22                           1
    a_22      A22-3                          -1
    a_23      obj                             1
    a_23      V23                             1
    a_23      A1-23                           1
    a_23      A23-1                          -1
    a_24      obj                             1
    a_24      V24                             1
    a_25      obj                             1
    a_25      V25                             1
    a_25      A4-25                           1
    a_25      A25-4                          -1
    a_25      A9-25                           1
    a_25      A25-9                          -1
    a_25      A10-25                          1
    a_25      A25-10                         -1
    y_1       Phi                             1
    y_1       V1                              1
    y_2       Phi                             1
    y_2       V2                              1
    y_3       Phi                             1
    y_3       V3                              1
    y_4       Phi                             1
    y_4       V4                              1
    y_5       Phi                             1
    y_5       V5                              1
    y_6       Phi                             1
    y_6       V6                              1
    y_7       Phi                             1
    y_7       V7                              1
    y_8       Phi                             1
    y_8       V8                              1
    y_9       Phi                             1
    y_9       V9                              1
    y_10      Phi                             1
    y_10      V10                             1
    y_11      Phi                             1
    y_11      V11                             1
    y_12      Phi                             1
    y_12      V12                             1
    y_13      Phi                             1
    y_13      V13                             1
    y_14      Phi                             1
    y_14      V14                             1
    y_15      Phi                             1
    y_15      V15                             1
    y_16      Phi                             1
    y_16      V16                             1
    y_17      Phi                             1
    y_17      V17                             1
    y_19      Phi                             1
    y_19      V19                             1
    y_20      Phi                             1
    y_20      V20                             1
    y_21      Phi                             1
    y_21      V21                             1
    y_22      Phi                             1
    y_22      V22                             1
    y_23      Phi                             1
    y_23      V23                             1
    y_24      Phi                             1
    y_24      V24                             1
    y_25      Phi                             1
    y_25      V25                             1
    x_1       Lambda                          1
    x_1       A21-1                          -1
    x_1       A23-1                          -1
    x_2       Lambda                          1
    x_2       A4-2                           -1
    x_2       A10-2                          -1
    x_3       Lambda                          1
    x_3       A22-3                          -1
    x_4       Lambda                          1
    x_4       A2-4                           -1
    x_4       A11-4                          -1
    x_4       A25-4                          -1
    x_5       Lambda                          1
    x_6       Lambda                          1
    x_6       A16-6                          -1
    x_7       Lambda                          1
    x_8       Lambda                          1
    x_9       Lambda                          1
    x_9       A25-9                          -1
    x_10      Lambda                          1
    x_10      A2-10                          -1
    x_10      A11-10                         -1
    x_10      A14-10                         -1
    x_10      A25-10                         -1
    x_11      Lambda                          1
    x_11      A4-11                          -1
    x_11      A10-11                         -1
    x_11      A12-11                         -1
    x_11      A21-11                         -1
    x_12      Lambda                          1
    x_12      A11-12                         -1
    x_12      A15-12                         -1
    x_13      Lambda                          1
    x_14      Lambda                          1
    x_14      A10-14                         -1
    x_15      Lambda                          1
    x_15      A12-15                         -1
    x_15      A20-15                         -1
    x_16      Lambda                          1
    x_16      A6-16                          -1
    x_16      A19-16                         -1
    x_17      Lambda                          1
    x_19      Lambda                          1
    x_19      A16-19                         -1
    x_20      Lambda                          1
    x_20      A15-20                         -1
    x_21      Lambda                          1
    x_21      A1-21                          -1
    x_21      A11-21                         -1
    x_22      Lambda                          1
    x_22      A3-22                          -1
    x_23      Lambda                          1
    x_23      A1-23                          -1
    x_24      Lambda                          1
    x_25      Lambda                          1
    x_25      A4-25                          -1
    x_25      A9-25                          -1
    x_25      A10-25                         -1
    MARK0001  'MARKER'                 'INTEND'
RHS
    rhs       Phi                             3
    rhs       Lambda                          3
    rhs       V1                              1
    rhs       V2                              1
    rhs       V3                              1
    rhs       V4                              1
    rhs       V5                              1
    rhs       V6                              1
    rhs       V7                              1
    rhs       V8                              1
    rhs       V9                              1
    rhs       V10                             1
    rhs       V11                             1
    rhs       V12                             1
    rhs       V13                             1
    rhs       V14                             1
    rhs       V15                             1
    rhs       V16                             1
    rhs       V17                             1
    rhs       V19                             1
    rhs       V20                             1
    rhs       V21                             1
    rhs       V22                             1
    rhs       V23                             1
    rhs       V24                             1
    rhs       V25                             1
BOUNDS
 UP bnd       a_1                             1
 UP bnd       a_2                             1
 UP bnd       a_3                             1
 UP bnd       a_4                             1
 UP bnd       a_5                             1
 UP bnd       a_6                             1
 UP bnd       a_7                             1
 UP bnd       a_8                             1
 UP bnd       a_9                             1
 UP bnd       a_10                            1
 UP bnd       a_11                            1
 UP bnd       a_12                            1
 UP bnd       a_13                            1
 UP bnd       a_14                            1
 UP bnd       a_15                            1
 UP bnd       a_16                            1
 UP bnd       a_17                            1
 UP bnd       a_19                            1
 UP bnd       a_20                            1
 UP bnd       a_21                            1
 UP bnd       a_22                            1
 UP bnd       a_23                            1
 UP bnd       a_24                            1
 UP bnd       a_25                            1
 UP bnd       y_1                             1
 UP bnd       y_2                             1
 UP bnd       y_3                             1
 UP bnd       y_4                             1
 UP bnd       y_5                             1
 UP bnd       y_6                             1
 UP bnd       y_7                             1
 UP bnd       y_8                             1
 UP bnd       y_9                             1
 UP bnd       y_10                            1
 UP bnd       y_11                            1
 UP bnd       y_12                            1
 UP bnd       y_13                            1
 UP bnd       y_14                            1
 UP bnd       y_15                            1
 UP bnd       y_16                            1
 UP bnd       y_17                            1
 UP bnd       y_19                            1
 UP bnd       y_20                            1
 UP bnd       y_21                            1
 UP bnd       y_22                            1
 UP bnd       y_23                            1
 UP bnd       y_24                            1
 UP bnd       y_25                            1
 UP bnd       x_1                             1
 UP bnd       x_2                             1
 UP bnd       x_3                             1
 UP bnd       x_4                             1
 UP bnd       x_5                             1
 UP bnd       x_6                             1
 UP bnd       x_7                             1
 UP bnd       x_8                             1
 UP bnd       x_9                             1
 UP bnd       x_10                            1
 UP bnd       x_11                            1
 UP bnd       x_12                            1
 UP bnd       x_13                            1
 UP bnd       x_14                            1
 UP bnd       x_15                            1
 UP bnd       x_16                            1
 UP bnd       x_17                            1
 UP bnd       x_19                            1
 UP bnd       x_20                            1
 UP bnd       x_21                            1
 UP bnd       x_22                            1
 UP bnd       x_23                            1
 UP bnd       x_24                            1
 UP bnd       x_25                            1
ENDATA
